Route #1: 18 13 41 40 19 42 4 47
Route #2: 12 17 37 44 15 45 33 39 10 49 5
Route #3: 38 9 30 34 50 16 21 29 2 11
Route #4: 46 32 1 22 20 35 36 3 28 31 26 8
Route #5: 27 48 23 7 43 24 25 14 6
Cost 521
Time 0.067305
